12 40 9 10
13 14 14 1 12 9 2 3 15 17 4 10 5 19 5 18 14 14 20 17 9 12 19 10 10 15 20 5 4 17 17 3 12 5 7 14 17 16 18 15 
13.43 8.63 14.56 15.52 12.92 14.24 1.1 2.45 7.07 12.71 0.52 13.72 3.58 7.42 11.28 6.18 8.8 12.35 15.99 9.93 12.84 15.09 11.72 13.31 13.61 13.51 8.66 4.94 5.63 15.84 14.63 6.42 13.87 12.09 14.32 4.92 8.95 5.06 4.28 0.46 
10.25 7.98 4.77 11.35 15.39 15.25 8.55 13.32 1.02 2.59 11.61 0.67 9.38 7.13 2.65 15.44 6.27 4.31 6.66 3.29 2.43 13.81 4.53 15.18 4.2 3.06 9.85 14.37 1.2 7.78 9.74 12.04 9.04 6.23 12.83 8.96 15.16 14.59 9.73 13.69 
11.5 11.64 8.47 4.43 10.01 2.61 5.92 3.07 13.46 0.17 0.96 11.79 2.87 6.99 7.44 9 10.32 10.58 6.37 9.05 8.97 2 4.58 1.79 7.05 6.03 4.59 12.65 15.1 15.11 13.97 12.84 9.86 2.49 6.05 10.85 1.4 5.97 2.32 5.98 
8.77 15.38 12.98 1.75 7.48 3.38 11.77 4.74 0.85 2.53 5.34 11.83 10.19 1.22 8.8 6.37 8.01 7.97 3.68 7.69 11.01 13.93 13.52 14.11 2.6 15.59 12.45 8.77 6.73 5.38 6.77 2.29 5.1 6.67 13.48 14.37 14.66 1.87 9.96 11.6 
9.21 13.65 3.41 13.65 12.41 1.39 9.48 2.16 2.53 12.62 6.27 14.05 9.69 8.67 10.78 15.22 13.65 13.02 15.97 4.21 4.25 1.17 3.88 4.29 0.65 3.3 5.61 2.11 14.54 4.84 10.43 5.36 5.28 8.68 1.39 2.45 11.73 10.6 14.67 3.67 
13.21 2.08 3.56 9.81 15.29 6.54 2.31 10.42 14.28 9.25 8.55 4.91 7.45 0.21 0.2 5.95 12.96 4.75 15.81 1.57 7.23 13.87 6.57 0.3 9.75 15.71 6.84 4.36 13.33 4.57 10.74 7.39 0.42 14.89 2.52 13 8.19 1.18 0.72 14.45 
1.52 13.31 5.29 2.19 2.56 14.1 3.7 8.92 0.61 4.13 3.47 4.41 10.8 3.2 0.8 12.85 11.92 1.9 5.83 7.65 13.12 0.19 4.67 7.26 14.93 11.83 0.77 13.24 11.39 2.4 11.33 1.51 13.44 3.93 15.84 1.79 11.14 6.38 15.47 14.3 
0.22 5.81 8.82 8.49 0.36 15.83 7.3 7.44 12.35 10.35 13.97 13.22 1.57 3.76 5.73 6.74 7.56 11.95 8 5.68 6.35 5.95 3.94 12.47 4.81 15.45 1.9 14.54 0.56 5.67 14.1 4.98 9.62 13.08 3.38 6.61 6.1 13.4 8.77 10.97 
10.59 11.13 13.79 9.54 10.44 11.92 12.85 0.05 3.1 4.86 6.02 2.19 3.08 4.53 11.44 5.87 5.99 1.52 2.05 4.38 6.35 8.74 15.8 13.59 1.91 9.85 3.01 9.91 15.79 15.28 0.28 8.83 15.62 11.51 8.53 2.94 12.09 0.03 2.43 11.82 
8 8 8 8 8 8 8 8 8 8 8 8 8 8 8 8 8 8 8 8 8 8 8 8 8 8 8 8 8 8 8 8 8 8 8 8 8 8 8 8 
15.01 3.49 3.89 13.95 5.17 7.86 6.29 2.56 4.09 14.3 15.16 3.74 8.08 5.93 7.98 8.62 10.16 3.87 9.66 7 0.13 7.49 13.1 7.3 15.5 12.87 15.29 11.31 5.47 3.64 8.68 10.83 1.72 0.87 1.81 8.65 9.14 8.76 7.16 1.02 
0.24 1.19 5.68 1.97 5.48 0.17 6.08 11.59 12.53 7.82 15.67 13.52 11.8 11.84 12.36 13.17 7.83 2.6 11.37 9.56 2.72 4.49 5.9 10.73 0.16 1.65 2.56 12.13 6.39 2.76 12.22 1.04 4.8 1.63 15.16 5.32 8.01 5.7 4.31 15.56 
1 1 1 1 1 1 1 1 1 1 1 1 1 1 1 1 1 1 1 1 1 1 1 1 1 1 1 1 1 1 1 1 1 1 1 1 1 1 1 1 
1 1 1 1 1 1 1 1 1 1 1 1 1 1 1 1 1 1 1 1 1 1 1 1 1 1 1 1 1 1 1 1 1 1 1 1 1 1 1 1 
1 1 1 1 1 1 1 1 1 1 1 1 1 1 1 1 1 1 1 1 1 1 1 1 1 1 1 1 1 1 1 1 1 1 1 1 1 1 1 1 
1 1 1 1 1 1 1 1 1 1 1 1 1 1 1 1 1 1 1 1 1 1 1 1 1 1 1 1 1 1 1 1 1 1 1 1 1 1 1 1 
1 1 1 1 1 1 1 1 1 1 1 1 1 1 1 1 1 1 1 1 1 1 1 1 1 1 1 1 1 1 1 1 1 1 1 1 1 1 1 1 
1 1 1 1 1 1 1 1 1 1 1 1 1 1 1 1 1 1 1 1 1 1 1 1 1 1 1 1 1 1 1 1 1 1 1 1 1 1 1 1 
1 1 1 1 1 1 1 1 1 1 1 1 1 1 1 1 1 1 1 1 1 1 1 1 1 1 1 1 1 1 1 1 1 1 1 1 1 1 1 1 
1 1 1 1 1 1 1 1 1 1 1 1 1 1 1 1 1 1 1 1 1 1 1 1 1 1 1 1 1 1 1 1 1 1 1 1 1 1 1 1 
1 1 1 1 1 1 1 1 1 1 1 1 1 1 1 1 1 1 1 1 1 1 1 1 1 1 1 1 1 1 1 1 1 1 1 1 1 1 1 1 
1 1 1 1 1 1 1 1 1 1 1 1 1 1 1 1 1 1 1 1 1 1 1 1 1 1 1 1 1 1 1 1 1 1 1 1 1 1 1 1 
1 1 1 1 1 1 1 1 1 1 1 1 1 1 1 1 1 1 1 1 1 1 1 1 1 1 1 1 1 1 1 1 1 1 1 1 1 1 1 1 
1 1 1 1 1 1 1 1 1 1 1 1 1 1 1 1 1 1 1 1 1 1 1 1 1 1 1 1 1 1 1 1 1 1 1 1 1 1 1 1 
0.01 0.01 0.01 0.01 0.01 0.01 0.01 0.01 0.01 0.01 0.01 0.01 0.01 0.01 0.01 0.01 0.01 0.01 0.01 0.01 0.01 0.01 0.01 0.01 0.01 0.01 0.01 0.01 0.01 0.01 0.01 0.01 0.01 0.01 0.01 0.01 0.01 0.01 0.01 0.01 
0.02 0.02 0.02 0.02 0.02 0.02 0.02 0.02 0.02 0.02 0.02 0.02 0.02 0.02 0.02 0.02 0.02 0.02 0.02 0.02 0.02 0.02 0.02 0.02 0.02 0.02 0.02 0.02 0.02 0.02 0.02 0.02 0.02 0.02 0.02 0.02 0.02 0.02 0.02 0.02 
0.03 0.03 0.03 0.03 0.03 0.03 0.03 0.03 0.03 0.03 0.03 0.03 0.03 0.03 0.03 0.03 0.03 0.03 0.03 0.03 0.03 0.03 0.03 0.03 0.03 0.03 0.03 0.03 0.03 0.03 0.03 0.03 0.03 0.03 0.03 0.03 0.03 0.03 0.03 0.03 
0.04 0.04 0.04 0.04 0.04 0.04 0.04 0.04 0.04 0.04 0.04 0.04 0.04 0.04 0.04 0.04 0.04 0.04 0.04 0.04 0.04 0.04 0.04 0.04 0.04 0.04 0.04 0.04 0.04 0.04 0.04 0.04 0.04 0.04 0.04 0.04 0.04 0.04 0.04 0.04 
0.05 0.05 0.05 0.05 0.05 0.05 0.05 0.05 0.05 0.05 0.05 0.05 0.05 0.05 0.05 0.05 0.05 0.05 0.05 0.05 0.05 0.05 0.05 0.05 0.05 0.05 0.05 0.05 0.05 0.05 0.05 0.05 0.05 0.05 0.05 0.05 0.05 0.05 0.05 0.05 
0.06 0.06 0.06 0.06 0.06 0.06 0.06 0.06 0.06 0.06 0.06 0.06 0.06 0.06 0.06 0.06 0.06 0.06 0.06 0.06 0.06 0.06 0.06 0.06 0.06 0.06 0.06 0.06 0.06 0.06 0.06 0.06 0.06 0.06 0.06 0.06 0.06 0.06 0.06 0.06 
0.07 0.07 0.07 0.07 0.07 0.07 0.07 0.07 0.07 0.07 0.07 0.07 0.07 0.07 0.07 0.07 0.07 0.07 0.07 0.07 0.07 0.07 0.07 0.07 0.07 0.07 0.07 0.07 0.07 0.07 0.07 0.07 0.07 0.07 0.07 0.07 0.07 0.07 0.07 0.07 
0.08 0.08 0.08 0.08 0.08 0.08 0.08 0.08 0.08 0.08 0.08 0.08 0.08 0.08 0.08 0.08 0.08 0.08 0.08 0.08 0.08 0.08 0.08 0.08 0.08 0.08 0.08 0.08 0.08 0.08 0.08 0.08 0.08 0.08 0.08 0.08 0.08 0.08 0.08 0.08 
0.09 0.09 0.09 0.09 0.09 0.09 0.09 0.09 0.09 0.09 0.09 0.09 0.09 0.09 0.09 0.09 0.09 0.09 0.09 0.09 0.09 0.09 0.09 0.09 0.09 0.09 0.09 0.09 0.09 0.09 0.09 0.09 0.09 0.09 0.09 0.09 0.09 0.09 0.09 0.09 
0.1 0.1 0.1 0.1 0.1 0.1 0.1 0.1 0.1 0.1 0.1 0.1 0.1 0.1 0.1 0.1 0.1 0.1 0.1 0.1 0.1 0.1 0.1 0.1 0.1 0.1 0.1 0.1 0.1 0.1 0.1 0.1 0.1 0.1 0.1 0.1 0.1 0.1 0.1 0.1 
0.5 0.5 0.5 0.5 0.5 0.5 0.5 0.5 0.5 0.5 0.5 0.5 0.5 0.5 0.5 0.5 0.5 0.5 0.5 0.5 0.5 0.5 0.5 0.5 0.5 0.5 0.5 0.5 0.5 0.5 0.5 0.5 0.5 0.5 0.5 0.5 0.5 0.5 0.5 0.5 
1 1 1 1 1 1 1 1 1 1 1 1 1 1 1 1 1 1 1 1 1 1 1 1 1 1 1 1 1 1 1 1 1 1 1 1 1 1 1 1 
